c Generated map
c Size: 15 * 15, weights in range: 1 to 10, walls: True, with ratio 0.1
c dim 4 of 4
c
p sp 225 341
c graph contains 225 nodes and 341 arcs
c
a 1 16 9
a 16 1 9
a 1 2 8
a 2 1 8
a 2 17 4
a 17 2 4
a 2 3 3
a 3 2 3
a 3 18 2
a 18 3 2
a 3 4 9
a 4 3 9
a 4 19 8
a 19 4 8
a 4 5 6
a 5 4 6
a 5 20 7
a 20 5 7
a 5 6 2
a 6 5 2
a 6 21 4
a 21 6 4
a 8 23 3
a 23 8 3
a 8 9 2
a 9 8 2
a 9 24 10
a 24 9 10
a 9 10 6
a 10 9 6
a 10 25 1
a 25 10 1
a 10 11 6
a 11 10 6
a 11 26 10
a 26 11 10
a 11 12 8
a 12 11 8
a 12 27 9
a 27 12 9
a 12 13 9
a 13 12 9
a 13 28 2
a 28 13 2
a 13 14 4
a 14 13 4
a 14 29 6
a 29 14 6
a 14 15 3
a 15 14 3
a 16 31 1
a 31 16 1
a 16 17 5
a 17 16 5
a 17 32 10
a 32 17 10
a 17 18 10
a 18 17 10
a 18 33 3
a 33 18 3
a 18 19 10
a 19 18 10
a 19 34 3
a 34 19 3
a 19 20 4
a 20 19 4
a 20 35 6
a 35 20 6
a 20 21 9
a 21 20 9
a 21 36 9
a 36 21 9
a 21 22 3
a 22 21 3
a 22 37 3
a 37 22 3
a 22 23 3
a 23 22 3
a 23 38 9
a 38 23 9
a 23 24 3
a 24 23 3
a 24 39 6
a 39 24 6
a 24 25 5
a 25 24 5
a 25 40 2
a 40 25 2
a 25 26 2
a 26 25 2
a 26 41 8
a 41 26 8
a 26 27 1
a 27 26 1
a 27 42 10
a 42 27 10
a 27 28 6
a 28 27 6
a 28 43 6
a 43 28 6
a 28 29 3
a 29 28 3
a 29 44 7
a 44 29 7
a 31 46 5
a 46 31 5
a 31 32 2
a 32 31 2
a 32 47 9
a 47 32 9
a 32 33 2
a 33 32 2
a 33 48 10
a 48 33 10
a 33 34 8
a 34 33 8
a 34 49 8
a 49 34 8
a 34 35 4
a 35 34 4
a 35 50 4
a 50 35 4
a 35 36 6
a 36 35 6
a 36 51 9
a 51 36 9
a 36 37 10
a 37 36 10
a 37 52 7
a 52 37 7
a 37 38 7
a 38 37 7
a 38 53 9
a 53 38 9
a 38 39 9
a 39 38 9
a 39 40 8
a 40 39 8
a 40 55 1
a 55 40 1
a 40 41 4
a 41 40 4
a 41 56 4
a 56 41 4
a 41 42 6
a 42 41 6
a 42 57 2
a 57 42 2
a 42 43 6
a 43 42 6
a 43 58 6
a 58 43 6
a 43 44 4
a 44 43 4
a 44 59 5
a 59 44 5
a 44 45 4
a 45 44 4
a 45 60 1
a 60 45 1
a 46 61 2
a 61 46 2
a 46 47 1
a 47 46 1
a 47 48 7
a 48 47 7
a 48 63 9
a 63 48 9
a 48 49 8
a 49 48 8
a 49 50 2
a 50 49 2
a 50 65 1
a 65 50 1
a 50 51 10
a 51 50 10
a 51 66 9
a 66 51 9
a 51 52 4
a 52 51 4
a 52 67 8
a 67 52 8
a 52 53 7
a 53 52 7
a 53 68 6
a 68 53 6
a 55 70 4
a 70 55 4
a 55 56 3
a 56 55 3
a 56 71 2
a 71 56 2
a 56 57 3
a 57 56 3
a 57 72 7
a 72 57 7
a 57 58 2
a 58 57 2
a 58 73 1
a 73 58 1
a 58 59 2
a 59 58 2
a 59 74 5
a 74 59 5
a 59 60 4
a 60 59 4
a 60 75 10
a 75 60 10
a 61 76 4
a 76 61 4
a 63 78 5
a 78 63 5
a 65 80 7
a 80 65 7
a 65 66 6
a 66 65 6
a 66 81 6
a 81 66 6
a 66 67 3
a 67 66 3
a 67 68 1
a 68 67 1
a 68 83 4
a 83 68 4
a 70 85 10
a 85 70 10
a 70 71 3
a 71 70 3
a 71 86 2
a 86 71 2
a 71 72 7
a 72 71 7
a 72 87 1
a 87 72 1
a 72 73 7
a 73 72 7
a 73 88 5
a 88 73 5
a 73 74 7
a 74 73 7
a 74 75 3
a 75 74 3
a 75 90 5
a 90 75 5
a 76 91 7
a 91 76 7
a 76 77 8
a 77 76 8
a 77 92 2
a 92 77 2
a 77 78 1
a 78 77 1
a 78 93 2
a 93 78 2
a 80 81 6
a 81 80 6
a 81 96 2
a 96 81 2
a 83 84 5
a 84 83 5
a 84 99 2
a 99 84 2
a 84 85 6
a 85 84 6
a 85 100 8
a 100 85 8
a 85 86 6
a 86 85 6
a 86 101 3
a 101 86 3
a 86 87 10
a 87 86 10
a 87 102 8
a 102 87 8
a 87 88 6
a 88 87 6
a 88 103 4
a 103 88 4
a 90 105 5
a 105 90 5
a 91 106 2
a 106 91 2
a 91 92 3
a 92 91 3
a 92 107 8
a 107 92 8
a 92 93 10
a 93 92 10
a 93 108 4
a 108 93 4
a 93 94 9
a 94 93 9
a 94 109 10
a 109 94 10
a 96 111 3
a 111 96 3
a 96 97 9
a 97 96 9
a 97 112 3
a 112 97 3
a 99 114 8
a 114 99 8
a 99 100 5
a 100 99 5
a 100 115 8
a 115 100 8
a 100 101 4
a 101 100 4
a 101 116 6
a 116 101 6
a 101 102 4
a 102 101 4
a 102 117 4
a 117 102 4
a 102 103 1
a 103 102 1
a 103 118 2
a 118 103 2
a 103 104 7
a 104 103 7
a 104 119 1
a 119 104 1
a 104 105 7
a 105 104 7
a 105 120 2
a 120 105 2
a 106 121 1
a 121 106 1
a 106 107 5
a 107 106 5
a 107 122 10
a 122 107 10
a 107 108 1
a 108 107 1
a 108 123 1
a 123 108 1
a 108 109 10
a 109 108 10
a 109 124 10
a 124 109 10
a 109 110 1
a 110 109 1
a 110 111 7
a 111 110 7
a 111 112 7
a 112 111 7
a 112 127 3
a 127 112 3
a 112 113 3
a 113 112 3
a 113 128 10
a 128 113 10
a 113 114 2
a 114 113 2
a 114 129 1
a 129 114 1
a 114 115 9
a 115 114 9
a 115 130 4
a 130 115 4
a 115 116 4
a 116 115 4
a 116 131 10
a 131 116 10
a 116 117 6
a 117 116 6
a 117 132 7
a 132 117 7
a 117 118 7
a 118 117 7
a 118 119 9
a 119 118 9
a 119 134 7
a 134 119 7
a 119 120 7
a 120 119 7
a 121 136 1
a 136 121 1
a 121 122 5
a 122 121 5
a 122 123 1
a 123 122 1
a 123 138 2
a 138 123 2
a 123 124 7
a 124 123 7
a 124 139 4
a 139 124 4
a 127 142 3
a 142 127 3
a 127 128 1
a 128 127 1
a 128 143 9
a 143 128 9
a 128 129 7
a 129 128 7
a 129 144 4
a 144 129 4
a 129 130 10
a 130 129 10
a 130 145 6
a 145 130 6
a 130 131 3
a 131 130 3
a 131 146 10
a 146 131 10
a 131 132 5
a 132 131 5
a 132 147 9
a 147 132 9
a 134 149 10
a 149 134 10
a 136 151 1
a 151 136 1
a 138 153 2
a 153 138 2
a 138 139 8
a 139 138 8
a 139 154 6
a 154 139 6
a 139 140 3
a 140 139 3
a 140 155 2
a 155 140 2
a 140 141 7
a 141 140 7
a 141 156 6
a 156 141 6
a 141 142 3
a 142 141 3
a 142 157 6
a 157 142 6
a 142 143 4
a 143 142 4
a 143 158 3
a 158 143 3
a 143 144 9
a 144 143 9
a 144 159 5
a 159 144 5
a 144 145 5
a 145 144 5
a 145 160 3
a 160 145 3
a 145 146 5
a 146 145 5
a 146 161 8
a 161 146 8
a 146 147 3
a 147 146 3
a 147 162 7
a 162 147 7
a 147 148 8
a 148 147 8
a 148 163 4
a 163 148 4
a 148 149 1
a 149 148 1
a 149 164 2
a 164 149 2
a 149 150 7
a 150 149 7
a 150 165 5
a 165 150 5
a 151 166 5
a 166 151 5
a 153 168 3
a 168 153 3
a 153 154 2
a 154 153 2
a 154 155 2
a 155 154 2
a 155 170 10
a 170 155 10
a 155 156 5
a 156 155 5
a 156 171 2
a 171 156 2
a 156 157 10
a 157 156 10
a 157 172 2
a 172 157 2
a 157 158 5
a 158 157 5
a 158 173 1
a 173 158 1
a 158 159 10
a 159 158 10
a 159 174 5
a 174 159 5
a 159 160 5
a 160 159 5
a 160 175 7
a 175 160 7
a 160 161 6
a 161 160 6
a 161 176 7
a 176 161 7
a 161 162 1
a 162 161 1
a 162 177 5
a 177 162 5
a 162 163 10
a 163 162 10
a 163 178 8
a 178 163 8
a 163 164 10
a 164 163 10
a 164 179 7
a 179 164 7
a 164 165 5
a 165 164 5
a 165 180 9
a 180 165 9
a 166 181 4
a 181 166 4
a 166 167 5
a 167 166 5
a 167 182 7
a 182 167 7
a 167 168 6
a 168 167 6
a 168 183 1
a 183 168 1
a 170 185 2
a 185 170 2
a 170 171 5
a 171 170 5
a 171 186 6
a 186 171 6
a 171 172 1
a 172 171 1
a 172 187 5
a 187 172 5
a 172 173 10
a 173 172 10
a 173 188 1
a 188 173 1
a 173 174 3
a 174 173 3
a 174 189 6
a 189 174 6
a 174 175 3
a 175 174 3
a 175 190 2
a 190 175 2
a 175 176 8
a 176 175 8
a 176 191 4
a 191 176 4
a 176 177 4
a 177 176 4
a 177 192 4
a 192 177 4
a 177 178 2
a 178 177 2
a 178 193 2
a 193 178 2
a 178 179 6
a 179 178 6
a 179 180 7
a 180 179 7
a 180 195 6
a 195 180 6
a 181 196 7
a 196 181 7
a 181 182 6
a 182 181 6
a 182 197 5
a 197 182 5
a 182 183 4
a 183 182 4
a 183 198 9
a 198 183 9
a 183 184 7
a 184 183 7
a 184 199 9
a 199 184 9
a 184 185 6
a 185 184 6
a 185 200 6
a 200 185 6
a 185 186 9
a 186 185 9
a 186 201 9
a 201 186 9
a 186 187 5
a 187 186 5
a 187 202 2
a 202 187 2
a 187 188 3
a 188 187 3
a 188 189 2
a 189 188 2
a 189 204 5
a 204 189 5
a 189 190 6
a 190 189 6
a 190 205 7
a 205 190 7
a 190 191 3
a 191 190 3
a 191 206 5
a 206 191 5
a 191 192 7
a 192 191 7
a 192 207 2
a 207 192 2
a 192 193 9
a 193 192 9
a 195 210 8
a 210 195 8
a 196 197 4
a 197 196 4
a 197 212 9
a 212 197 9
a 197 198 3
a 198 197 3
a 198 213 8
a 213 198 8
a 198 199 9
a 199 198 9
a 199 214 4
a 214 199 4
a 199 200 3
a 200 199 3
a 200 215 1
a 215 200 1
a 200 201 10
a 201 200 10
a 201 216 4
a 216 201 4
a 201 202 10
a 202 201 10
a 202 217 4
a 217 202 4
a 204 219 9
a 219 204 9
a 204 205 4
a 205 204 4
a 205 220 1
a 220 205 1
a 205 206 2
a 206 205 2
a 206 221 6
a 221 206 6
a 206 207 5
a 207 206 5
a 207 222 7
a 222 207 7
a 209 224 1
a 224 209 1
a 209 210 9
a 210 209 9
a 210 225 5
a 225 210 5
a 212 213 6
a 213 212 6
a 213 214 7
a 214 213 7
a 214 215 3
a 215 214 3
a 215 216 6
a 216 215 6
a 216 217 4
a 217 216 4
a 217 218 9
a 218 217 9
a 218 219 6
a 219 218 6
a 219 220 4
a 220 219 4
a 220 221 6
a 221 220 6
a 221 222 3
a 222 221 3
a 222 223 3
a 223 222 3
a 223 224 3
a 224 223 3
a 224 225 3
a 225 224 3
